60
1 0 175
2 0 135
2 1 58
3 0 272
3 1 261
3 2 230
4 0 277
4 1 306
4 2 56
4 3 301
5 0 148
5 1 17
5 2 27
5 3 287
5 4 63
6 0 29
6 1 138
6 2 4
6 3 182
6 4 154
6 5 168
7 0 179
7 1 33
7 2 49
7 3 219
7 4 27
7 5 314
7 6 180
8 0 119
8 1 286
8 2 94
8 3 58
8 4 81
8 5 225
8 6 252
8 7 48
9 0 222
9 1 261
9 2 99
9 3 40
9 4 165
9 5 146
9 6 121
9 7 179
9 8 12
10 0 26
10 1 170
10 2 278
10 3 232
10 4 274
10 5 132
10 6 77
10 7 315
10 8 181
10 9 232
11 0 35
11 1 295
11 2 216
11 3 174
11 4 151
11 5 27
11 6 93
11 7 188
11 8 181
11 9 167
11 10 81
12 0 138
12 1 217
12 2 222
12 3 201
12 4 263
12 5 319
12 6 8
12 7 82
12 8 160
12 9 263
12 10 61
12 11 74
13 0 76
13 1 185
13 2 122
13 3 122
13 4 316
13 5 118
13 6 41
13 7 52
13 8 113
13 9 30
13 10 161
13 11 172
13 12 243
14 0 105
14 1 230
14 2 235
14 3 14
14 4 151
14 5 136
14 6 311
14 7 120
14 8 289
14 9 89
14 10 174
14 11 216
14 12 45
14 13 186
15 0 272
15 1 306
15 2 64
15 3 3
15 4 76
15 5 92
15 6 231
15 7 247
15 8 256
15 9 91
15 10 165
15 11 230
15 12 145
15 13 93
15 14 181
16 0 73
16 1 295
16 2 228
16 3 234
16 4 289
16 5 162
16 6 51
16 7 191
16 8 117
16 9 233
16 10 98
16 11 85
16 12 239
16 13 76
16 14 217
16 15 4
17 0 203
17 1 182
17 2 247
17 3 38
17 4 164
17 5 198
17 6 58
17 7 95
17 8 21
17 9 318
17 10 214
17 11 161
17 12 258
17 13 166
17 14 107
17 15 28
17 16 294
18 0 190
18 1 114
18 2 174
18 3 86
18 4 67
18 5 290
18 6 109
18 7 318
18 8 245
18 9 78
18 10 181
18 11 41
18 12 17
18 13 30
18 14 120
18 15 32
18 16 311
18 17 253
19 0 154
19 1 57
19 2 296
19 3 268
19 4 64
19 5 41
19 6 296
19 7 253
19 8 232
19 9 202
19 10 264
19 11 218
19 12 227
19 13 101
19 14 82
19 15 126
19 16 96
19 17 118
19 18 59
20 0 201
20 1 62
20 2 40
20 3 38
20 4 144
20 5 125
20 6 29
20 7 133
20 8 171
20 9 218
20 10 89
20 11 82
20 12 183
20 13 21
20 14 274
20 15 44
20 16 162
20 17 200
20 18 138
20 19 14
21 0 159
21 1 179
21 2 167
21 3 196
21 4 269
21 5 129
21 6 320
21 7 304
21 8 68
21 9 201
21 10 185
21 11 291
21 12 307
21 13 52
21 14 198
21 15 1
21 16 108
21 17 163
21 18 274
21 19 81
21 20 280
22 0 163
22 1 242
22 2 211
22 3 95
22 4 301
22 5 214
22 6 26
22 7 216
22 8 156
22 9 310
22 10 220
22 11 239
22 12 245
22 13 261
22 14 107
22 15 171
22 16 141
22 17 95
22 18 148
22 19 247
22 20 204
22 21 318
23 0 132
23 1 231
23 2 54
23 3 101
23 4 75
23 5 119
23 6 90
23 7 31
23 8 120
23 9 52
23 10 300
23 11 101
23 12 276
23 13 217
23 14 275
23 15 295
23 16 265
23 17 314
23 18 260
23 19 45
23 20 160
23 21 156
23 22 288
24 0 240
24 1 8
24 2 193
24 3 262
24 4 53
24 5 231
24 6 166
24 7 105
24 8 113
24 9 211
24 10 268
24 11 143
24 12 292
24 13 201
24 14 313
24 15 18
24 16 272
24 17 290
24 18 163
24 19 313
24 20 265
24 21 130
24 22 279
24 23 216
25 0 1
25 1 35
25 2 34
25 3 49
25 4 218
25 5 265
25 6 190
25 7 230
25 8 123
25 9 235
25 10 292
25 11 211
25 12 40
25 13 72
25 14 90
25 15 4
25 16 298
25 17 317
25 18 72
25 19 308
25 20 289
25 21 134
25 22 142
25 23 191
25 24 133
26 0 215
26 1 6
26 2 309
26 3 59
26 4 28
26 5 117
26 6 241
26 7 97
26 8 228
26 9 219
26 10 317
26 11 177
26 12 41
26 13 241
26 14 187
26 15 156
26 16 297
26 17 86
26 18 198
26 19 49
26 20 137
26 21 62
26 22 224
26 23 143
26 24 160
26 25 230
27 0 263
27 1 145
27 2 204
27 3 269
27 4 149
27 5 87
27 6 199
27 7 213
27 8 311
27 9 55
27 10 119
27 11 289
27 12 115
27 13 33
27 14 285
27 15 72
27 16 47
27 17 275
27 18 120
27 19 123
27 20 278
27 21 149
27 22 283
27 23 99
27 24 90
27 25 188
27 26 50
28 0 187
28 1 166
28 2 313
28 3 145
28 4 309
28 5 210
28 6 102
28 7 178
28 8 290
28 9 144
28 10 310
28 11 70
28 12 73
28 13 67
28 14 131
28 15 254
28 16 124
28 17 25
28 18 159
28 19 249
28 20 319
28 21 57
28 22 239
28 23 151
28 24 170
28 25 116
28 26 81
28 27 34
29 0 135
29 1 188
29 2 13
29 3 2
29 4 288
29 5 37
29 6 274
29 7 223
29 8 109
29 9 17
29 10 245
29 11 17
29 12 311
29 13 302
29 14 15
29 15 275
29 16 58
29 17 139
29 18 73
29 19 119
29 20 248
29 21 71
29 22 91
29 23 249
29 24 301
29 25 254
29 26 98
29 27 207
29 28 251
30 0 218
30 1 70
30 2 235
30 3 206
30 4 70
30 5 96
30 6 245
30 7 190
30 8 21
30 9 186
30 10 17
30 11 268
30 12 304
30 13 143
30 14 19
30 15 275
30 16 123
30 17 301
30 18 88
30 19 193
30 20 116
30 21 192
30 22 2
30 23 319
30 24 73
30 25 284
30 26 317
30 27 189
30 28 84
30 29 159
31 0 277
31 1 55
31 2 215
31 3 27
31 4 299
31 5 182
31 6 6
31 7 75
31 8 256
31 9 14
31 10 87
31 11 231
31 12 237
31 13 316
31 14 12
31 15 109
31 16 300
31 17 250
31 18 204
31 19 281
31 20 297
31 21 25
31 22 21
31 23 7
31 24 284
31 25 273
31 26 23
31 27 81
31 28 192
31 29 307
31 30 257
32 0 11
32 1 77
32 2 25
32 3 262
32 4 261
32 5 106
32 6 82
32 7 125
32 8 227
32 9 153
32 10 146
32 11 122
32 12 266
32 13 245
32 14 246
32 15 57
32 16 202
32 17 285
32 18 85
32 19 128
32 20 254
32 21 141
32 22 198
32 23 122
32 24 142
32 25 291
32 26 297
32 27 213
32 28 243
32 29 94
32 30 145
32 31 5
33 0 96
33 1 137
33 2 44
33 3 208
33 4 173
33 5 124
33 6 44
33 7 226
33 8 153
33 9 181
33 10 245
33 11 57
33 12 107
33 13 110
33 14 160
33 15 256
33 16 202
33 17 122
33 18 14
33 19 202
33 20 75
33 21 314
33 22 177
33 23 102
33 24 50
33 25 19
33 26 158
33 27 88
33 28 38
33 29 211
33 30 251
33 31 85
33 32 82
34 0 15
34 1 50
34 2 46
34 3 143
34 4 265
34 5 295
34 6 230
34 7 33
34 8 203
34 9 177
34 10 1
34 11 148
34 12 93
34 13 241
34 14 98
34 15 216
34 16 170
34 17 307
34 18 297
34 19 84
34 20 217
34 21 141
34 22 150
34 23 228
34 24 271
34 25 132
34 26 294
34 27 93
34 28 191
34 29 277
34 30 31
34 31 111
34 32 21
34 33 1
35 0 40
35 1 224
35 2 12
35 3 158
35 4 306
35 5 272
35 6 151
35 7 302
35 8 51
35 9 41
35 10 142
35 11 85
35 12 156
35 13 12
35 14 168
35 15 285
35 16 307
35 17 115
35 18 7
35 19 313
35 20 130
35 21 263
35 22 220
35 23 15
35 24 248
35 25 121
35 26 232
35 27 232
35 28 206
35 29 129
35 30 75
35 31 169
35 32 223
35 33 106
35 34 150
36 0 268
36 1 44
36 2 191
36 3 155
36 4 164
36 5 96
36 6 274
36 7 18
36 8 266
36 9 296
36 10 267
36 11 4
36 12 203
36 13 271
36 14 109
36 15 91
36 16 288
36 17 29
36 18 84
36 19 105
36 20 52
36 21 187
36 22 177
36 23 251
36 24 132
36 25 10
36 26 175
36 27 150
36 28 148
36 29 197
36 30 52
36 31 18
36 32 295
36 33 183
36 34 240
36 35 31
37 0 64
37 1 275
37 2 217
37 3 66
37 4 72
37 5 125
37 6 296
37 7 171
37 8 264
37 9 190
37 10 83
37 11 290
37 12 288
37 13 92
37 14 253
37 15 76
37 16 270
37 17 23
37 18 299
37 19 16
37 20 286
37 21 252
37 22 34
37 23 85
37 24 103
37 25 231
37 26 224
37 27 194
37 28 201
37 29 185
37 30 45
37 31 58
37 32 64
37 33 143
37 34 13
37 35 66
37 36 30
38 0 83
38 1 264
38 2 287
38 3 270
38 4 152
38 5 98
38 6 294
38 7 165
38 8 307
38 9 12
38 10 7
38 11 123
38 12 105
38 13 166
38 14 231
38 15 313
38 16 76
38 17 164
38 18 36
38 19 103
38 20 106
38 21 16
38 22 69
38 23 203
38 24 278
38 25 296
38 26 138
38 27 285
38 28 79
38 29 228
38 30 3
38 31 280
38 32 294
38 33 196
38 34 196
38 35 229
38 36 145
38 37 230
39 0 107
39 1 15
39 2 218
39 3 134
39 4 265
39 5 68
39 6 77
39 7 23
39 8 113
39 9 66
39 10 296
39 11 67
39 12 284
39 13 87
39 14 208
39 15 260
39 16 217
39 17 110
39 18 313
39 19 164
39 20 255
39 21 230
39 22 140
39 23 220
39 24 197
39 25 220
39 26 53
39 27 265
39 28 90
39 29 6
39 30 185
39 31 223
39 32 184
39 33 150
39 34 15
39 35 17
39 36 242
39 37 248
39 38 282
40 0 16
40 1 76
40 2 242
40 3 1
40 4 180
40 5 85
40 6 160
40 7 57
40 8 1
40 9 283
40 10 248
40 11 211
40 12 144
40 13 280
40 14 38
40 15 190
40 16 31
40 17 149
40 18 82
40 19 198
40 20 124
40 21 1
40 22 253
40 23 126
40 24 93
40 25 274
40 26 104
40 27 22
40 28 207
40 29 80
40 30 150
40 31 295
40 32 155
40 33 266
40 34 118
40 35 211
40 36 244
40 37 42
40 38 235
40 39 35
41 0 302
41 1 75
41 2 150
41 3 91
41 4 107
41 5 101
41 6 132
41 7 28
41 8 37
41 9 280
41 10 258
41 11 40
41 12 152
41 13 255
41 14 141
41 15 113
41 16 105
41 17 195
41 18 203
41 19 186
41 20 133
41 21 166
41 22 166
41 23 12
41 24 291
41 25 45
41 26 75
41 27 161
41 28 233
41 29 312
41 30 10
41 31 240
41 32 59
41 33 11
41 34 129
41 35 84
41 36 232
41 37 76
41 38 230
41 39 161
41 40 273
42 0 130
42 1 310
42 2 52
42 3 153
42 4 316
42 5 206
42 6 69
42 7 95
42 8 279
42 9 259
42 10 214
42 11 317
42 12 302
42 13 292
42 14 103
42 15 81
42 16 49
42 17 290
42 18 315
42 19 8
42 20 99
42 21 214
42 22 293
42 23 125
42 24 292
42 25 288
42 26 142
42 27 16
42 28 201
42 29 275
42 30 9
42 31 91
42 32 98
42 33 223
42 34 80
42 35 275
42 36 198
42 37 83
42 38 145
42 39 90
42 40 229
42 41 176
43 0 14
43 1 101
43 2 150
43 3 92
43 4 215
43 5 241
43 6 69
43 7 65
43 8 253
43 9 240
43 10 24
43 11 20
43 12 108
43 13 87
43 14 72
43 15 167
43 16 164
43 17 159
43 18 239
43 19 85
43 20 283
43 21 44
43 22 284
43 23 52
43 24 113
43 25 27
43 26 279
43 27 74
43 28 213
43 29 266
43 30 201
43 31 243
43 32 151
43 33 179
43 34 7
43 35 269
43 36 69
43 37 275
43 38 148
43 39 41
43 40 84
43 41 147
43 42 11
44 0 212
44 1 25
44 2 151
44 3 146
44 4 313
44 5 131
44 6 301
44 7 173
44 8 283
44 9 226
44 10 259
44 11 304
44 12 212
44 13 92
44 14 168
44 15 145
44 16 159
44 17 310
44 18 291
44 19 302
44 20 141
44 21 54
44 22 7
44 23 292
44 24 77
44 25 227
44 26 43
44 27 68
44 28 242
44 29 254
44 30 22
44 31 61
44 32 276
44 33 295
44 34 152
44 35 201
44 36 14
44 37 234
44 38 267
44 39 12
44 40 26
44 41 311
44 42 83
44 43 59
45 0 170
45 1 40
45 2 115
45 3 4
45 4 282
45 5 135
45 6 243
45 7 71
45 8 195
45 9 69
45 10 12
45 11 80
45 12 171
45 13 303
45 14 55
45 15 120
45 16 51
45 17 77
45 18 239
45 19 61
45 20 291
45 21 255
45 22 167
45 23 226
45 24 145
45 25 45
45 26 39
45 27 244
45 28 176
45 29 124
45 30 300
45 31 184
45 32 16
45 33 193
45 34 155
45 35 173
45 36 9
45 37 136
45 38 268
45 39 220
45 40 63
45 41 304
45 42 284
45 43 105
45 44 12
46 0 50
46 1 158
46 2 275
46 3 93
46 4 104
46 5 268
46 6 233
46 7 257
46 8 56
46 9 163
46 10 2
46 11 262
46 12 244
46 13 46
46 14 48
46 15 70
46 16 100
46 17 214
46 18 258
46 19 107
46 20 172
46 21 133
46 22 253
46 23 89
46 24 38
46 25 227
46 26 192
46 27 309
46 28 125
46 29 223
46 30 18
46 31 84
46 32 136
46 33 148
46 34 314
46 35 294
46 36 15
46 37 244
46 38 305
46 39 68
46 40 151
46 41 288
46 42 191
46 43 166
46 44 192
46 45 174
47 0 297
47 1 49
47 2 49
47 3 184
47 4 214
47 5 84
47 6 67
47 7 64
47 8 212
47 9 191
47 10 256
47 11 307
47 12 221
47 13 127
47 14 201
47 15 112
47 16 112
47 17 260
47 18 26
47 19 58
47 20 275
47 21 161
47 22 25
47 23 295
47 24 282
47 25 121
47 26 149
47 27 199
47 28 230
47 29 199
47 30 301
47 31 54
47 32 174
47 33 151
47 34 248
47 35 309
47 36 151
47 37 119
47 38 252
47 39 103
47 40 202
47 41 151
47 42 104
47 43 30
47 44 176
47 45 198
47 46 78
48 0 125
48 1 171
48 2 93
48 3 40
48 4 128
48 5 269
48 6 41
48 7 60
48 8 193
48 9 253
48 10 1
48 11 220
48 12 315
48 13 54
48 14 250
48 15 242
48 16 314
48 17 181
48 18 75
48 19 290
48 20 84
48 21 143
48 22 243
48 23 234
48 24 192
48 25 43
48 26 260
48 27 164
48 28 142
48 29 15
48 30 93
48 31 227
48 32 298
48 33 246
48 34 64
48 35 197
48 36 137
48 37 285
48 38 126
48 39 200
48 40 284
48 41 203
48 42 61
48 43 271
48 44 184
48 45 234
48 46 49
48 47 37
49 0 312
49 1 28
49 2 120
49 3 174
49 4 285
49 5 45
49 6 320
49 7 63
49 8 34
49 9 317
49 10 281
49 11 176
49 12 27
49 13 230
49 14 169
49 15 251
49 16 178
49 17 140
49 18 277
49 19 30
49 20 13
49 21 319
49 22 102
49 23 175
49 24 179
49 25 142
49 26 101
49 27 71
49 28 56
49 29 178
49 30 91
49 31 187
49 32 17
49 33 42
49 34 184
49 35 116
49 36 62
49 37 269
49 38 14
49 39 140
49 40 20
49 41 258
49 42 48
49 43 133
49 44 231
49 45 63
49 46 256
49 47 302
49 48 74
50 0 176
50 1 102
50 2 310
50 3 119
50 4 191
50 5 83
50 6 133
50 7 4
50 8 239
50 9 308
50 10 24
50 11 210
50 12 191
50 13 12
50 14 203
50 15 310
50 16 19
50 17 64
50 18 38
50 19 106
50 20 313
50 21 40
50 22 69
50 23 241
50 24 117
50 25 88
50 26 81
50 27 200
50 28 191
50 29 268
50 30 245
50 31 68
50 32 55
50 33 72
50 34 301
50 35 269
50 36 307
50 37 259
50 38 127
50 39 47
50 40 306
50 41 257
50 42 16
50 43 286
50 44 318
50 45 157
50 46 19
50 47 65
50 48 313
50 49 60
51 0 18
51 1 65
51 2 166
51 3 215
51 4 69
51 5 136
51 6 20
51 7 302
51 8 260
51 9 161
51 10 298
51 11 171
51 12 111
51 13 301
51 14 259
51 15 249
51 16 129
51 17 13
51 18 194
51 19 225
51 20 250
51 21 90
51 22 250
51 23 169
51 24 189
51 25 214
51 26 155
51 27 267
51 28 114
51 29 285
51 30 47
51 31 307
51 32 102
51 33 105
51 34 123
51 35 67
51 36 138
51 37 66
51 38 91
51 39 260
51 40 266
51 41 139
51 42 166
51 43 277
51 44 225
51 45 307
51 46 262
51 47 193
51 48 271
51 49 210
51 50 227
52 0 234
52 1 121
52 2 23
52 3 205
52 4 234
52 5 107
52 6 185
52 7 260
52 8 93
52 9 52
52 10 227
52 11 122
52 12 106
52 13 109
52 14 247
52 15 275
52 16 83
52 17 189
52 18 317
52 19 266
52 20 127
52 21 144
52 22 244
52 23 125
52 24 248
52 25 58
52 26 263
52 27 263
52 28 215
52 29 85
52 30 115
52 31 163
52 32 203
52 33 298
52 34 125
52 35 21
52 36 267
52 37 169
52 38 300
52 39 45
52 40 6
52 41 205
52 42 258
52 43 146
52 44 131
52 45 89
52 46 17
52 47 314
52 48 83
52 49 177
52 50 117
52 51 101
53 0 317
53 1 198
53 2 320
53 3 218
53 4 32
53 5 276
53 6 315
53 7 35
53 8 68
53 9 179
53 10 234
53 11 227
53 12 5
53 13 167
53 14 83
53 15 34
53 16 314
53 17 137
53 18 221
53 19 143
53 20 3
53 21 284
53 22 220
53 23 167
53 24 162
53 25 124
53 26 10
53 27 311
53 28 148
53 29 229
53 30 164
53 31 183
53 32 183
53 33 163
53 34 238
53 35 18
53 36 151
53 37 310
53 38 234
53 39 11
53 40 190
53 41 305
53 42 47
53 43 282
53 44 81
53 45 308
53 46 237
53 47 235
53 48 302
53 49 229
53 50 99
53 51 297
53 52 1
54 0 112
54 1 41
54 2 159
54 3 12
54 4 145
54 5 268
54 6 197
54 7 269
54 8 135
54 9 31
54 10 19
54 11 221
54 12 289
54 13 185
54 14 36
54 15 70
54 16 86
54 17 19
54 18 141
54 19 84
54 20 125
54 21 226
54 22 283
54 23 126
54 24 73
54 25 270
54 26 80
54 27 14
54 28 284
54 29 227
54 30 135
54 31 125
54 32 71
54 33 26
54 34 157
54 35 141
54 36 58
54 37 241
54 38 220
54 39 319
54 40 119
54 41 65
54 42 89
54 43 127
54 44 199
54 45 311
54 46 247
54 47 85
54 48 154
54 49 192
54 50 15
54 51 198
54 52 302
54 53 39
55 0 84
55 1 22
55 2 269
55 3 140
55 4 222
55 5 12
55 6 216
55 7 48
55 8 255
55 9 39
55 10 274
55 11 187
55 12 62
55 13 23
55 14 196
55 15 47
55 16 112
55 17 21
55 18 5
55 19 68
55 20 51
55 21 46
55 22 291
55 23 63
55 24 225
55 25 20
55 26 222
55 27 169
55 28 278
55 29 303
55 30 72
55 31 200
55 32 207
55 33 127
55 34 92
55 35 51
55 36 79
55 37 11
55 38 143
55 39 45
55 40 119
55 41 194
55 42 53
55 43 214
55 44 93
55 45 37
55 46 168
55 47 113
55 48 179
55 49 200
55 50 311
55 51 235
55 52 154
55 53 215
55 54 274
56 0 73
56 1 230
56 2 149
56 3 241
56 4 145
56 5 199
56 6 99
56 7 249
56 8 285
56 9 55
56 10 285
56 11 135
56 12 97
56 13 205
56 14 129
56 15 197
56 16 111
56 17 97
56 18 202
56 19 11
56 20 81
56 21 281
56 22 156
56 23 270
56 24 192
56 25 153
56 26 193
56 27 137
56 28 157
56 29 91
56 30 304
56 31 256
56 32 210
56 33 59
56 34 212
56 35 217
56 36 106
56 37 37
56 38 146
56 39 162
56 40 294
56 41 280
56 42 117
56 43 277
56 44 241
56 45 180
56 46 215
56 47 14
56 48 161
56 49 6
56 50 82
56 51 230
56 52 20
56 53 270
56 54 238
56 55 14
57 0 287
57 1 279
57 2 55
57 3 178
57 4 75
57 5 81
57 6 16
57 7 233
57 8 185
57 9 137
57 10 19
57 11 21
57 12 123
57 13 218
57 14 232
57 15 19
57 16 308
57 17 32
57 18 267
57 19 137
57 20 275
57 21 19
57 22 142
57 23 143
57 24 99
57 25 192
57 26 231
57 27 84
57 28 169
57 29 95
57 30 317
57 31 177
57 32 307
57 33 167
57 34 214
57 35 288
57 36 212
57 37 48
57 38 25
57 39 220
57 40 167
57 41 45
57 42 68
57 43 161
57 44 315
57 45 179
57 46 308
57 47 81
57 48 134
57 49 293
57 50 138
57 51 162
57 52 121
57 53 304
57 54 95
57 55 257
57 56 109
58 0 62
58 1 117
58 2 285
58 3 225
58 4 310
58 5 249
58 6 55
58 7 30
58 8 200
58 9 159
58 10 256
58 11 95
58 12 63
58 13 18
58 14 61
58 15 110
58 16 251
58 17 227
58 18 308
58 19 186
58 20 101
58 21 131
58 22 148
58 23 237
58 24 164
58 25 98
58 26 154
58 27 110
58 28 71
58 29 219
58 30 243
58 31 308
58 32 138
58 33 164
58 34 137
58 35 49
58 36 195
58 37 8
58 38 149
58 39 41
58 40 67
58 41 10
58 42 252
58 43 134
58 44 160
58 45 274
58 46 199
58 47 43
58 48 1
58 49 30
58 50 68
58 51 188
58 52 77
58 53 201
58 54 15
58 55 110
58 56 193
58 57 171
59 0 43
59 1 320
59 2 142
59 3 274
59 4 14
59 5 70
59 6 262
59 7 125
59 8 222
59 9 280
59 10 130
59 11 292
59 12 56
59 13 96
59 14 173
59 15 168
59 16 320
59 17 308
59 18 144
59 19 25
59 20 206
59 21 41
59 22 6
59 23 243
59 24 74
59 25 99
59 26 245
59 27 126
59 28 235
59 29 166
59 30 270
59 31 7
59 32 20
59 33 222
59 34 57
59 35 242
59 36 272
59 37 241
59 38 48
59 39 13
59 40 294
59 41 62
59 42 122
59 43 251
59 44 198
59 45 53
59 46 164
59 47 5
59 48 187
59 49 133
59 50 39
59 51 313
59 52 192
59 53 194
59 54 15
59 55 276
59 56 193
59 57 264
59 58 276
